NAME : single
TYPE : ATSP
DIMENSION : 5
EDGE_WEIGHT_TYPE : EXPLICIT
EDGE_WEIGHT_FORMAT : FULL_MATRIX
EDGE_WEIGHT_SECTION
0 50220 50243 50292 50194 
0 0 149 229 50000 
0 149 0 251 50000 
0 229 251 0 50000 
0 50000 50000 50000 0 
EOF